p wcnf 196 230 231 
1 -132 145 0 
1 -75 70 0 
1 -29 -41 0 
1 -100 -135 0 
1 82 114 0 
1 53 -35 0 
1 157 -174 0 
1 49 126 0 
1 157 -110 0 
1 29 -147 0 
1 103 77 0 
1 160 -170 0 
1 59 15 0 
1 -78 162 0 
1 60 -81 0 
1 -61 -62 0 
1 144 4 0 
1 109 -73 0 
1 114 -20 0 
1 100 -42 0 
1 176 135 0 
1 63 -166 0 
1 -95 -113 0 
1 -155 60 0 
1 125 -107 0 
1 43 155 0 
1 178 56 0 
1 -39 38 0 
1 146 -150 0 
1 128 107 0 
1 -59 -26 0 
1 -156 123 0 
1 -98 -162 0 
1 -136 -91 0 
1 157 -128 0 
1 -196 -177 0 
1 -155 -134 0 
1 -164 57 0 
1 116 -58 0 
1 -124 46 0 
1 -76 -3 0 
1 -135 61 0 
1 -12 109 0 
1 -140 -40 0 
1 -102 12 0 
1 118 -34 0 
1 -131 -30 0 
1 -4 113 0 
1 -36 -58 0 
1 40 187 0 
1 -85 -97 0 
1 -130 -27 0 
1 -33 138 0 
1 71 -126 0 
1 64 158 0 
1 83 -193 0 
1 10 134 0 
1 87 163 0 
1 -161 -149 0 
1 75 -29 0 
1 -36 88 0 
1 26 -61 0 
1 -97 138 0 
1 -144 150 0 
1 114 -30 0 
1 61 -142 0 
1 -47 116 0 
1 50 26 0 
1 41 183 0 
1 -154 -151 0 
1 100 -165 0 
1 21 -131 0 
1 6 74 0 
1 155 -89 0 
1 125 -63 0 
1 15 -92 0 
1 106 -109 0 
1 -194 83 0 
1 127 38 0 
1 124 -121 0 
1 -42 -84 0 
1 -107 -55 0 
1 -103 -147 0 
1 -129 150 0 
1 75 112 0 
1 90 183 0 
1 59 -45 0 
1 25 -157 0 
1 139 -124 0 
1 39 61 0 
1 140 69 0 
1 -88 -82 0 
1 -115 -177 0 
1 -32 -105 0 
1 -165 59 0 
1 73 -168 0 
1 18 181 0 
1 150 64 0 
1 173 -34 0 
1 31 78 0 
1 -110 106 0 
1 -51 64 0 
1 -187 -92 0 
1 -30 -39 0 
1 136 -15 0 
1 140 34 0 
1 -64 106 0 
1 89 31 0 
1 97 -119 0 
1 73 -113 0 
1 -38 -39 0 
1 154 34 0 
1 6 -64 0 
1 -90 -96 0 
1 192 126 0 
1 -185 113 0 
1 -46 56 0 
1 187 124 0 
1 -95 -36 0 
1 120 186 0 
1 113 -144 0 
1 103 178 0 
1 -171 118 0 
1 -187 -65 0 
1 -143 103 0 
1 92 2 0 
1 158 193 0 
1 99 -18 0 
1 123 -8 0 
1 173 141 0 
1 -126 -25 0 
1 127 178 0 
1 142 -110 0 
1 -73 101 0 
1 -83 -124 0 
1 -27 -187 0 
1 -91 153 0 
1 -59 95 0 
1 -141 19 0 
1 -39 -73 0 
1 -160 142 0 
1 15 -101 0 
1 -41 -118 0 
1 118 44 0 
1 19 -84 0 
1 -163 135 0 
1 106 -169 0 
1 -36 44 0 
1 -113 157 0 
1 4 -11 0 
1 -136 17 0 
1 24 195 0 
1 -73 127 0 
1 -179 -37 0 
1 19 23 0 
1 72 -21 0 
1 -186 31 0 
1 28 -166 0 
1 -10 57 0 
1 2 -109 0 
1 194 36 0 
1 -155 5 0 
1 -70 49 0 
1 -152 107 0 
1 -73 -111 0 
1 80 -61 0 
1 -92 158 0 
1 -55 -21 0 
1 -155 -125 0 
1 -162 74 0 
1 -96 141 0 
1 -121 51 0 
1 106 -40 0 
1 -178 -26 0 
1 38 146 0 
1 -123 -30 0 
1 78 -38 0 
1 29 173 0 
1 3 58 0 
1 -33 -40 0 
1 103 -12 0 
1 -49 -72 0 
1 -144 55 0 
1 15 82 0 
1 -1 -126 0 
1 -124 -139 0 
1 -163 46 0 
1 82 93 0 
1 -138 104 0 
1 -148 86 0 
1 189 75 0 
1 -25 176 0 
1 100 -59 0 
1 65 -194 0 
1 -17 155 0 
1 68 53 0 
1 160 153 0 
1 -156 -183 0 
1 -192 -156 0 
1 137 -192 0 
1 -144 94 0 
1 -74 173 0 
1 -97 134 0 
1 -179 173 0 
1 -68 -185 0 
1 -172 -182 0 
1 98 193 0 
1 29 -114 0 
1 -6 -190 0 
1 173 26 0 
1 31 169 0 
1 -113 103 0 
1 108 129 0 
1 -37 164 0 
1 99 119 0 
1 -194 -2 0 
1 163 -83 0 
1 124 178 0 
1 53 -90 0 
1 -49 101 0 
1 172 80 0 
1 164 -27 0 
1 -154 195 0 
1 33 110 0 
1 196 78 0 
1 -61 91 0 
1 122 21 0 
1 -168 -94 0 
1 -10 114 0 
1 -169 151 0 
